







































































































46 36 9 70 33 49 18 
38 61 41 22 56 5 
60 45 21 73 54 17 2 
57 8 1 3 15 65 28 
19 69 30 63 29 27 71 23 
76 39 64 50 32 0 53 34 
13 44 10 51 42 52 35 
75 66 74 58 25 40 26 
31 4 47 14 72 68 
7 37 11 43 67 16 20 
6 48 12 62 24 55 59 
